Route #1: 1 50 74 37 43 52 78 4 30 32 1 
Route #2: 1 41 22 2 8 11 72 15 34 1 
Route #3: 1 14 54 67 68 71 39 59 51 77 1 
Route #4: 1 75 61 40 18 28 60 1 
Route #5: 1 63 24 45 13 6 31 7 1 
Route #6: 1 64 12 35 25 3 38 9 69 1 
Route #7: 1 73 46 23 33 5 55 10 16 65 48 1 
Route #8: 1 53 29 80 49 19 79 21 1 
Route #9: 1 47 26 42 56 57 70 66 36 27 20 76 17 1 
Route #10: 1 62 58 44 1 
Cost 2255
